check/instances/p01.mps
NAME        
ROWS
 N  Obj     
 E  r0      
 E  r1      
 E  r2      
 E  r3      
 E  r4      
 E  r5      
 E  r6      
 E  r7      
 E  r8      
 E  r9      
 E  r10     
 E  r11     
 E  r12     
 E  r13     
 E  r14     
 E  r15     
 E  r16     
 E  r17     
 E  r18     
 E  r19     
 E  r20     
 E  r21     
 E  r22     
 E  r23     
 E  r24     
 E  r25     
 E  r26     
 E  r27     
 E  r28     
 E  r29     
COLUMNS
    MARK0000  'MARKER'                 'INTORG'
    c0        Obj       29
    c0        r0        1
    c0        r16       1
    c1        Obj       82
    c1        r0        1
    c1        r17       1
    c2        Obj       46
    c2        r0        1
    c2        r18       1
    c3        Obj       68
    c3        r0        1
    c3        r19       1
    c4        Obj       52
    c4        r0        1
    c4        r20       1
    c5        Obj       72
    c5        r0        1
    c5        r21       1
    c6        Obj       42
    c6        r0        1
    c6        r22       1
    c7        Obj       51
    c7        r0        1
    c7        r23       1
    c8        Obj       55
    c8        r0        1
    c8        r24       1
    c9        Obj       29
    c9        r0        1
    c9        r25       1
    c10       Obj       74
    c10       r0        1
    c10       r26       1
    c11       Obj       23
    c11       r0        1
    c11       r27       1
    c12       Obj       72
    c12       r0        1
    c12       r28       1
    c13       Obj       46
    c13       r0        1
    c13       r29       1
    c14       Obj       29
    c14       r1        1
    c14       r15       1
    c15       Obj       55
    c15       r1        1
    c15       r17       1
    c16       Obj       46
    c16       r1        1
    c16       r18       1
    c17       Obj       42
    c17       r1        1
    c17       r19       1
    c18       Obj       43
    c18       r1        1
    c18       r20       1
    c19       Obj       43
    c19       r1        1
    c19       r21       1
    c20       Obj       23
    c20       r1        1
    c20       r22       1
    c21       Obj       23
    c21       r1        1
    c21       r23       1
    c22       Obj       31
    c22       r1        1
    c22       r24       1
    c23       Obj       41
    c23       r1        1
    c23       r25       1
    c24       Obj       51
    c24       r1        1
    c24       r26       1
    c25       Obj       11
    c25       r1        1
    c25       r27       1
    c26       Obj       52
    c26       r1        1
    c26       r28       1
    c27       Obj       21
    c27       r1        1
    c27       r29       1
    c28       Obj       82
    c28       r2        1
    c28       r15       1
    c29       Obj       55
    c29       r2        1
    c29       r16       1
    c30       Obj       68
    c30       r2        1
    c30       r18       1
    c31       Obj       46
    c31       r2        1
    c31       r19       1
    c32       Obj       55
    c32       r2        1
    c32       r20       1
    c33       Obj       23
    c33       r2        1
    c33       r21       1
    c34       Obj       43
    c34       r2        1
    c34       r22       1
    c35       Obj       41
    c35       r2        1
    c35       r23       1
    c36       Obj       29
    c36       r2        1
    c36       r24       1
    c37       Obj       79
    c37       r2        1
    c37       r25       1
    c38       Obj       21
    c38       r2        1
    c38       r26       1
    c39       Obj       64
    c39       r2        1
    c39       r27       1
    c40       Obj       31
    c40       r2        1
    c40       r28       1
    c41       Obj       51
    c41       r2        1
    c41       r29       1
    c42       Obj       46
    c42       r3        1
    c42       r15       1
    c43       Obj       46
    c43       r3        1
    c43       r16       1
    c44       Obj       68
    c44       r3        1
    c44       r17       1
    c45       Obj       82
    c45       r3        1
    c45       r19       1
    c46       Obj       15
    c46       r3        1
    c46       r20       1
    c47       Obj       72
    c47       r3        1
    c47       r21       1
    c48       Obj       31
    c48       r3        1
    c48       r22       1
    c49       Obj       62
    c49       r3        1
    c49       r23       1
    c50       Obj       42
    c50       r3        1
    c50       r24       1
    c51       Obj       21
    c51       r3        1
    c51       r25       1
    c52       Obj       51
    c52       r3        1
    c52       r26       1
    c53       Obj       51
    c53       r3        1
    c53       r27       1
    c54       Obj       43
    c54       r3        1
    c54       r28       1
    c55       Obj       64
    c55       r3        1
    c55       r29       1
    c56       Obj       68
    c56       r4        1
    c56       r15       1
    c57       Obj       42
    c57       r4        1
    c57       r16       1
    c58       Obj       46
    c58       r4        1
    c58       r17       1
    c59       Obj       82
    c59       r4        1
    c59       r18       1
    c60       Obj       74
    c60       r4        1
    c60       r20       1
    c61       Obj       23
    c61       r4        1
    c61       r21       1
    c62       Obj       52
    c62       r4        1
    c62       r22       1
    c63       Obj       21
    c63       r4        1
    c63       r23       1
    c64       Obj       46
    c64       r4        1
    c64       r24       1
    c65       Obj       82
    c65       r4        1
    c65       r25       1
    c66       Obj       58
    c66       r4        1
    c66       r26       1
    c67       Obj       46
    c67       r4        1
    c67       r27       1
    c68       Obj       65
    c68       r4        1
    c68       r28       1
    c69       Obj       23
    c69       r4        1
    c69       r29       1
    c70       Obj       52
    c70       r5        1
    c70       r15       1
    c71       Obj       43
    c71       r5        1
    c71       r16       1
    c72       Obj       55
    c72       r5        1
    c72       r17       1
    c73       Obj       15
    c73       r5        1
    c73       r18       1
    c74       Obj       74
    c74       r5        1
    c74       r19       1
    c75       Obj       61
    c75       r5        1
    c75       r21       1
    c76       Obj       23
    c76       r5        1
    c76       r22       1
    c77       Obj       55
    c77       r5        1
    c77       r23       1
    c78       Obj       31
    c78       r5        1
    c78       r24       1
    c79       Obj       33
    c79       r5        1
    c79       r25       1
    c80       Obj       37
    c80       r5        1
    c80       r26       1
    c81       Obj       51
    c81       r5        1
    c81       r27       1
    c82       Obj       29
    c82       r5        1
    c82       r28       1
    c83       Obj       59
    c83       r5        1
    c83       r29       1
    c84       Obj       72
    c84       r6        1
    c84       r15       1
    c85       Obj       43
    c85       r6        1
    c85       r16       1
    c86       Obj       23
    c86       r6        1
    c86       r17       1
    c87       Obj       72
    c87       r6        1
    c87       r18       1
    c88       Obj       23
    c88       r6        1
    c88       r19       1
    c89       Obj       61
    c89       r6        1
    c89       r20       1
    c90       Obj       42
    c90       r6        1
    c90       r22       1
    c91       Obj       23
    c91       r6        1
    c91       r23       1
    c92       Obj       31
    c92       r6        1
    c92       r24       1
    c93       Obj       77
    c93       r6        1
    c93       r25       1
    c94       Obj       37
    c94       r6        1
    c94       r26       1
    c95       Obj       51
    c95       r6        1
    c95       r27       1
    c96       Obj       46
    c96       r6        1
    c96       r28       1
    c97       Obj       33
    c97       r6        1
    c97       r29       1
    c98       Obj       42
    c98       r7        1
    c98       r15       1
    c99       Obj       23
    c99       r7        1
    c99       r16       1
    c100      Obj       43
    c100      r7        1
    c100      r17       1
    c101      Obj       31
    c101      r7        1
    c101      r18       1
    c102      Obj       52
    c102      r7        1
    c102      r19       1
    c103      Obj       23
    c103      r7        1
    c103      r20       1
    c104      Obj       42
    c104      r7        1
    c104      r21       1
    c105      Obj       33
    c105      r7        1
    c105      r23       1
    c106      Obj       15
    c106      r7        1
    c106      r24       1
    c107      Obj       37
    c107      r7        1
    c107      r25       1
    c108      Obj       33
    c108      r7        1
    c108      r26       1
    c109      Obj       33
    c109      r7        1
    c109      r27       1
    c110      Obj       31
    c110      r7        1
    c110      r28       1
    c111      Obj       37
    c111      r7        1
    c111      r29       1
    c112      Obj       51
    c112      r8        1
    c112      r15       1
    c113      Obj       23
    c113      r8        1
    c113      r16       1
    c114      Obj       41
    c114      r8        1
    c114      r17       1
    c115      Obj       62
    c115      r8        1
    c115      r18       1
    c116      Obj       21
    c116      r8        1
    c116      r19       1
    c117      Obj       55
    c117      r8        1
    c117      r20       1
    c118      Obj       23
    c118      r8        1
    c118      r21       1
    c119      Obj       33
    c119      r8        1
    c119      r22       1
    c120      Obj       29
    c120      r8        1
    c120      r24       1
    c121      Obj       62
    c121      r8        1
    c121      r25       1
    c122      Obj       46
    c122      r8        1
    c122      r26       1
    c123      Obj       29
    c123      r8        1
    c123      r27       1
    c124      Obj       51
    c124      r8        1
    c124      r28       1
    c125      Obj       11
    c125      r8        1
    c125      r29       1
    c126      Obj       55
    c126      r9        1
    c126      r15       1
    c127      Obj       31
    c127      r9        1
    c127      r16       1
    c128      Obj       29
    c128      r9        1
    c128      r17       1
    c129      Obj       42
    c129      r9        1
    c129      r18       1
    c130      Obj       46
    c130      r9        1
    c130      r19       1
    c131      Obj       31
    c131      r9        1
    c131      r20       1
    c132      Obj       31
    c132      r9        1
    c132      r21       1
    c133      Obj       15
    c133      r9        1
    c133      r22       1
    c134      Obj       29
    c134      r9        1
    c134      r23       1
    c135      Obj       51
    c135      r9        1
    c135      r25       1
    c136      Obj       21
    c136      r9        1
    c136      r26       1
    c137      Obj       41
    c137      r9        1
    c137      r27       1
    c138      Obj       23
    c138      r9        1
    c138      r28       1
    c139      Obj       37
    c139      r9        1
    c139      r29       1
    c140      Obj       29
    c140      r10       1
    c140      r15       1
    c141      Obj       41
    c141      r10       1
    c141      r16       1
    c142      Obj       79
    c142      r10       1
    c142      r17       1
    c143      Obj       21
    c143      r10       1
    c143      r18       1
    c144      Obj       82
    c144      r10       1
    c144      r19       1
    c145      Obj       33
    c145      r10       1
    c145      r20       1
    c146      Obj       77
    c146      r10       1
    c146      r21       1
    c147      Obj       37
    c147      r10       1
    c147      r22       1
    c148      Obj       62
    c148      r10       1
    c148      r23       1
    c149      Obj       51
    c149      r10       1
    c149      r24       1
    c150      Obj       65
    c150      r10       1
    c150      r26       1
    c151      Obj       42
    c151      r10       1
    c151      r27       1
    c152      Obj       59
    c152      r10       1
    c152      r28       1
    c153      Obj       61
    c153      r10       1
    c153      r29       1
    c154      Obj       74
    c154      r11       1
    c154      r15       1
    c155      Obj       51
    c155      r11       1
    c155      r16       1
    c156      Obj       21
    c156      r11       1
    c156      r17       1
    c157      Obj       51
    c157      r11       1
    c157      r18       1
    c158      Obj       58
    c158      r11       1
    c158      r19       1
    c159      Obj       37
    c159      r11       1
    c159      r20       1
    c160      Obj       37
    c160      r11       1
    c160      r21       1
    c161      Obj       33
    c161      r11       1
    c161      r22       1
    c162      Obj       46
    c162      r11       1
    c162      r23       1
    c163      Obj       21
    c163      r11       1
    c163      r24       1
    c164      Obj       65
    c164      r11       1
    c164      r25       1
    c165      Obj       61
    c165      r11       1
    c165      r27       1
    c166      Obj       11
    c166      r11       1
    c166      r28       1
    c167      Obj       55
    c167      r11       1
    c167      r29       1
    c168      Obj       23
    c168      r12       1
    c168      r15       1
    c169      Obj       11
    c169      r12       1
    c169      r16       1
    c170      Obj       64
    c170      r12       1
    c170      r17       1
    c171      Obj       51
    c171      r12       1
    c171      r18       1
    c172      Obj       46
    c172      r12       1
    c172      r19       1
    c173      Obj       51
    c173      r12       1
    c173      r20       1
    c174      Obj       51
    c174      r12       1
    c174      r21       1
    c175      Obj       33
    c175      r12       1
    c175      r22       1
    c176      Obj       29
    c176      r12       1
    c176      r23       1
    c177      Obj       41
    c177      r12       1
    c177      r24       1
    c178      Obj       42
    c178      r12       1
    c178      r25       1
    c179      Obj       61
    c179      r12       1
    c179      r26       1
    c180      Obj       62
    c180      r12       1
    c180      r28       1
    c181      Obj       23
    c181      r12       1
    c181      r29       1
    c182      Obj       72
    c182      r13       1
    c182      r15       1
    c183      Obj       52
    c183      r13       1
    c183      r16       1
    c184      Obj       31
    c184      r13       1
    c184      r17       1
    c185      Obj       43
    c185      r13       1
    c185      r18       1
    c186      Obj       65
    c186      r13       1
    c186      r19       1
    c187      Obj       29
    c187      r13       1
    c187      r20       1
    c188      Obj       46
    c188      r13       1
    c188      r21       1
    c189      Obj       31
    c189      r13       1
    c189      r22       1
    c190      Obj       51
    c190      r13       1
    c190      r23       1
    c191      Obj       23
    c191      r13       1
    c191      r24       1
    c192      Obj       59
    c192      r13       1
    c192      r25       1
    c193      Obj       11
    c193      r13       1
    c193      r26       1
    c194      Obj       62
    c194      r13       1
    c194      r27       1
    c195      Obj       59
    c195      r13       1
    c195      r29       1
    c196      Obj       46
    c196      r14       1
    c196      r15       1
    c197      Obj       21
    c197      r14       1
    c197      r16       1
    c198      Obj       51
    c198      r14       1
    c198      r17       1
    c199      Obj       64
    c199      r14       1
    c199      r18       1
    c200      Obj       23
    c200      r14       1
    c200      r19       1
    c201      Obj       59
    c201      r14       1
    c201      r20       1
    c202      Obj       33
    c202      r14       1
    c202      r21       1
    c203      Obj       37
    c203      r14       1
    c203      r22       1
    c204      Obj       11
    c204      r14       1
    c204      r23       1
    c205      Obj       37
    c205      r14       1
    c205      r24       1
    c206      Obj       61
    c206      r14       1
    c206      r25       1
    c207      Obj       55
    c207      r14       1
    c207      r26       1
    c208      Obj       23
    c208      r14       1
    c208      r27       1
    c209      Obj       59
    c209      r14       1
    c209      r28       1
    MARK0001  'MARKER'                 'INTEND'
RHS
    RHS_V     r0        1
    RHS_V     r1        1
    RHS_V     r2        1
    RHS_V     r3        1
    RHS_V     r4        1
    RHS_V     r5        1
    RHS_V     r6        1
    RHS_V     r7        1
    RHS_V     r8        1
    RHS_V     r9        1
    RHS_V     r10       1
    RHS_V     r11       1
    RHS_V     r12       1
    RHS_V     r13       1
    RHS_V     r14       1
    RHS_V     r15       1
    RHS_V     r16       1
    RHS_V     r17       1
    RHS_V     r18       1
    RHS_V     r19       1
    RHS_V     r20       1
    RHS_V     r21       1
    RHS_V     r22       1
    RHS_V     r23       1
    RHS_V     r24       1
    RHS_V     r25       1
    RHS_V     r26       1
    RHS_V     r27       1
    RHS_V     r28       1
    RHS_V     r29       1
BOUNDS
 BV BOUND     c0      
 BV BOUND     c1      
 BV BOUND     c2      
 BV BOUND     c3      
 BV BOUND     c4      
 BV BOUND     c5      
 BV BOUND     c6      
 BV BOUND     c7      
 BV BOUND     c8      
 BV BOUND     c9      
 BV BOUND     c10     
 BV BOUND     c11     
 BV BOUND     c12     
 BV BOUND     c13     
 BV BOUND     c14     
 BV BOUND     c15     
 BV BOUND     c16     
 BV BOUND     c17     
 BV BOUND     c18     
 BV BOUND     c19     
 BV BOUND     c20     
 BV BOUND     c21     
 BV BOUND     c22     
 BV BOUND     c23     
 BV BOUND     c24     
 BV BOUND     c25     
 BV BOUND     c26     
 BV BOUND     c27     
 BV BOUND     c28     
 BV BOUND     c29     
 BV BOUND     c30     
 BV BOUND     c31     
 BV BOUND     c32     
 BV BOUND     c33     
 BV BOUND     c34     
 BV BOUND     c35     
 BV BOUND     c36     
 BV BOUND     c37     
 BV BOUND     c38     
 BV BOUND     c39     
 BV BOUND     c40     
 BV BOUND     c41     
 BV BOUND     c42     
 BV BOUND     c43     
 BV BOUND     c44     
 BV BOUND     c45     
 BV BOUND     c46     
 BV BOUND     c47     
 BV BOUND     c48     
 BV BOUND     c49     
 BV BOUND     c50     
 BV BOUND     c51     
 BV BOUND     c52     
 BV BOUND     c53     
 BV BOUND     c54     
 BV BOUND     c55     
 BV BOUND     c56     
 BV BOUND     c57     
 BV BOUND     c58     
 BV BOUND     c59     
 BV BOUND     c60     
 BV BOUND     c61     
 BV BOUND     c62     
 BV BOUND     c63     
 BV BOUND     c64     
 BV BOUND     c65     
 BV BOUND     c66     
 BV BOUND     c67     
 BV BOUND     c68     
 BV BOUND     c69     
 BV BOUND     c70     
 BV BOUND     c71     
 BV BOUND     c72     
 BV BOUND     c73     
 BV BOUND     c74     
 BV BOUND     c75     
 BV BOUND     c76     
 BV BOUND     c77     
 BV BOUND     c78     
 BV BOUND     c79     
 BV BOUND     c80     
 BV BOUND     c81     
 BV BOUND     c82     
 BV BOUND     c83     
 BV BOUND     c84     
 BV BOUND     c85     
 BV BOUND     c86     
 BV BOUND     c87     
 BV BOUND     c88     
 BV BOUND     c89     
 BV BOUND     c90     
 BV BOUND     c91     
 BV BOUND     c92     
 BV BOUND     c93     
 BV BOUND     c94     
 BV BOUND     c95     
 BV BOUND     c96     
 BV BOUND     c97     
 BV BOUND     c98     
 BV BOUND     c99     
 BV BOUND     c100    
 BV BOUND     c101    
 BV BOUND     c102    
 BV BOUND     c103    
 BV BOUND     c104    
 BV BOUND     c105    
 BV BOUND     c106    
 BV BOUND     c107    
 BV BOUND     c108    
 BV BOUND     c109    
 BV BOUND     c110    
 BV BOUND     c111    
 BV BOUND     c112    
 BV BOUND     c113    
 BV BOUND     c114    
 BV BOUND     c115    
 BV BOUND     c116    
 BV BOUND     c117    
 BV BOUND     c118    
 BV BOUND     c119    
 BV BOUND     c120    
 BV BOUND     c121    
 BV BOUND     c122    
 BV BOUND     c123    
 BV BOUND     c124    
 BV BOUND     c125    
 BV BOUND     c126    
 BV BOUND     c127    
 BV BOUND     c128    
 BV BOUND     c129    
 BV BOUND     c130    
 BV BOUND     c131    
 BV BOUND     c132    
 BV BOUND     c133    
 BV BOUND     c134    
 BV BOUND     c135    
 BV BOUND     c136    
 BV BOUND     c137    
 BV BOUND     c138    
 BV BOUND     c139    
 BV BOUND     c140    
 BV BOUND     c141    
 BV BOUND     c142    
 BV BOUND     c143    
 BV BOUND     c144    
 BV BOUND     c145    
 BV BOUND     c146    
 BV BOUND     c147    
 BV BOUND     c148    
 BV BOUND     c149    
 BV BOUND     c150    
 BV BOUND     c151    
 BV BOUND     c152    
 BV BOUND     c153    
 BV BOUND     c154    
 BV BOUND     c155    
 BV BOUND     c156    
 BV BOUND     c157    
 BV BOUND     c158    
 BV BOUND     c159    
 BV BOUND     c160    
 BV BOUND     c161    
 BV BOUND     c162    
 BV BOUND     c163    
 BV BOUND     c164    
 BV BOUND     c165    
 BV BOUND     c166    
 BV BOUND     c167    
 BV BOUND     c168    
 BV BOUND     c169    
 BV BOUND     c170    
 BV BOUND     c171    
 BV BOUND     c172    
 BV BOUND     c173    
 BV BOUND     c174    
 BV BOUND     c175    
 BV BOUND     c176    
 BV BOUND     c177    
 BV BOUND     c178    
 BV BOUND     c179    
 BV BOUND     c180    
 BV BOUND     c181    
 BV BOUND     c182    
 BV BOUND     c183    
 BV BOUND     c184    
 BV BOUND     c185    
 BV BOUND     c186    
 BV BOUND     c187    
 BV BOUND     c188    
 BV BOUND     c189    
 BV BOUND     c190    
 BV BOUND     c191    
 BV BOUND     c192    
 BV BOUND     c193    
 BV BOUND     c194    
 BV BOUND     c195    
 BV BOUND     c196    
 BV BOUND     c197    
 BV BOUND     c198    
 BV BOUND     c199    
 BV BOUND     c200    
 BV BOUND     c201    
 BV BOUND     c202    
 BV BOUND     c203    
 BV BOUND     c204    
 BV BOUND     c205    
 BV BOUND     c206    
 BV BOUND     c207    
 BV BOUND     c208    
 BV BOUND     c209    
ENDATA
